NAME : rnd31_20.tsp
TYPE : TSP
DIMENSION : 20
EDGE_WEIGHT_TYPE : EUC_2D
NODE_COORD_SECTION
0 414 798
1 554 765
2 919 882
3 936 204
4 500 60
5 804 881
6 636 837
7 816 287
8 173 852
9 203 411
10 355 13
11 862 548
12 927 600
13 882 5
14 943 500
15 910 515
16 677 91
17 816 913
18 705 421
19 850 969
